GeneratedTests/Random_7/Random_7_16.tsp
NAME: Random_7_16
TYPE: TSP
DIMENSION: 7
EDGE_WEIGHT_TYPE: EUC_2D
NODE_COORD_SECTION
1 17.069038 19.519733
2 6.6964617 13.8340645
3 9.732298 14.507023
4 12.905899 3.7444994
5 5.162897 2.0476959
6 9.240435 12.635743
7 16.400358 8.435301
EOF
