GeneratedTests/Random_7/Random_7_16.txt
NAME: Random_7_16
TYPE: TSP
DIMENSION: 7
EDGE_WEIGHT_TYPE: EUC_2D
NODE_COORD_SECTION
1 9.70861 10.840705
2 11.764925 19.939005
3 19.098118 7.4153614
4 14.632726 16.663557
5 16.72791 6.349645
6 4.164886 6.584371
7 6.978012 20.611942
EOF
